# Solution for model r3_t9_m3_6 Batch Number: 1
# Finished Task: 3 / 9
# Makespan: 521.0, Total Distance: 173.0, Total Time: 0.1827
# R O S F Batch
0 0 10 0.0 0.0 -1
1 1 -1 0.0 0.0 -1
2 2 6 0.0 0.0 -1
3 -1 -1 -1.0 -1.0 0
4 -1 -1 -1.0 -1.0 0
5 2 -1 499.0 521.0 0
6 2 5 380.0 402.0 0
7 -1 -1 -1.0 -1.0 0
8 -1 -1 -1.0 -1.0 0
9 -1 -1 -1.0 -1.0 0
10 0 -1 475.0 499.0 0
11 -1 -1 -1.0 -1.0 0
